; SWAP2 DUP2 SWAP3 POP SWAP1 => POP SWAP1 DUP2
(set-option :produce-proofs true)
; 
(set-info :status unknown)
(declare-fun storage_t ((_ BitVec 256) (_ BitVec 256) (_ BitVec 256) Int (_ BitVec 256)) (_ BitVec 256))
(declare-fun storage_s ((_ BitVec 256) (_ BitVec 256) (_ BitVec 256) Int (_ BitVec 256)) (_ BitVec 256))
(declare-fun exc_halt_t (Int) Bool)
(declare-fun exc_halt_s (Int) Bool)
(declare-fun sc_t (Int) (_ BitVec 6))
(declare-fun stack_t ((_ BitVec 256) (_ BitVec 256) (_ BitVec 256) Int (_ BitVec 6)) (_ BitVec 256))
(declare-fun stack_s ((_ BitVec 256) (_ BitVec 256) (_ BitVec 256) Int (_ BitVec 6)) (_ BitVec 256))
(declare-fun sc_s (Int) (_ BitVec 6))
(declare-fun used_gas_t ((_ BitVec 256) (_ BitVec 256) (_ BitVec 256) Int) Int)
(declare-fun used_gas_s ((_ BitVec 256) (_ BitVec 256) (_ BitVec 256) Int) Int)
(assert
 (exists ((x_0 (_ BitVec 256)) (x_1 (_ BitVec 256)) (x_2 (_ BitVec 256)) )(let (($x6151 (forall ((w (_ BitVec 256)) )(let ((?x9353 (storage_t x_0 x_1 x_2 3 w)))
 (let ((?x5922 (storage_s x_0 x_1 x_2 5 w)))
 (= ?x5922 ?x9353))))
 ))
 (let (($x10336 (exc_halt_t 3)))
 (let (($x3979 (exc_halt_s 5)))
 (let (($x10527 (= $x3979 $x10336)))
 (let (($x2897 (forall ((n (_ BitVec 6)) )(let ((?x2012 (sc_t 3)))
 (let (($x5424 (bvsle ?x2012 n)))
 (let ((?x5955 (stack_t x_0 x_1 x_2 3 n)))
 (let ((?x503 (stack_s x_0 x_1 x_2 5 n)))
 (let (($x2452 (= ?x503 ?x5955)))
 (or $x2452 $x5424)))))))
 ))
 (let ((?x2012 (sc_t 3)))
 (let ((?x805 (sc_s 5)))
 (let (($x10507 (= ?x805 ?x2012)))
 (let ((?x5923 (used_gas_t x_0 x_1 x_2 0)))
 (let ((?x6154 (used_gas_s x_0 x_1 x_2 0)))
 (let (($x6070 (= ?x6154 ?x5923)))
 (let (($x6086 (forall ((w (_ BitVec 256)) )(let ((?x6069 (storage_t x_0 x_1 x_2 0 w)))
 (let ((?x6061 (storage_s x_0 x_1 x_2 0 w)))
 (= ?x6061 ?x6069))))
 ))
 (let (($x56 (exc_halt_t 0)))
 (let (($x57 (exc_halt_s 0)))
 (let (($x58 (= $x57 $x56)))
 (let (($x5049 (forall ((n (_ BitVec 6)) )(let ((?x2686 (stack_t x_0 x_1 x_2 0 n)))
 (let ((?x6179 (stack_s x_0 x_1 x_2 0 n)))
 (let (($x6180 (= ?x6179 ?x2686)))
 (let ((?x63 (sc_t 0)))
 (let (($x5330 (bvsle ?x63 n)))
 (or $x5330 $x6180)))))))
 ))
 (let ((?x63 (sc_t 0)))
 (let ((?x72 (sc_s 0)))
 (let (($x73 (= ?x72 ?x63)))
 (let (($x5712 (not (bvsle (_ bv0 6) (bvadd (_ bv62 6) (sc_t 2))))))
 (let (($x5218 (not (= ((_ extract 6 6) (bvadd (_ bv1 7) (concat (_ bv0 1) (sc_t 2)))) (_ bv0 1)))))
 (let (($x903 (exc_halt_t 2)))
 (let (($x5663 (forall ((w (_ BitVec 256)) )(let ((?x6530 (storage_t x_0 x_1 x_2 2 w)))
 (let ((?x9353 (storage_t x_0 x_1 x_2 3 w)))
 (= ?x9353 ?x6530))))
 ))
 (let (($x6423 (forall ((n (_ BitVec 6)) )(let ((?x1998 (stack_t x_0 x_1 x_2 2 n)))
 (let ((?x5955 (stack_t x_0 x_1 x_2 3 n)))
 (let ((?x4056 (sc_t 2)))
 (let ((?x5253 (bvadd (_ bv62 6) ?x4056)))
 (let (($x5888 (bvsle ?x5253 n)))
 (or $x5888 (= ?x5955 ?x1998))))))))
 ))
 (let (($x5514 (= ?x2012 (bvadd (_ bv1 6) (sc_t 2)))))
 (let (($x5852 (= (used_gas_t x_0 x_1 x_2 3) (+ 3 (used_gas_t x_0 x_1 x_2 2)))))
 (let ((?x4056 (sc_t 2)))
 (let ((?x7277 (bvadd (_ bv63 6) ?x4056)))
 (let ((?x6410 (stack_t x_0 x_1 x_2 2 ?x7277)))
 (let ((?x5253 (bvadd (_ bv62 6) ?x4056)))
 (let ((?x4978 (stack_t x_0 x_1 x_2 2 ?x5253)))
 (let (($x4851 (= $x903 (or (exc_halt_t 1) (not (bvsle (_ bv0 6) (bvadd (_ bv62 6) (sc_t 1))))))))
 (let (($x4863 (forall ((w (_ BitVec 256)) )(let ((?x54 (storage_t x_0 x_1 x_2 1 w)))
 (let ((?x6530 (storage_t x_0 x_1 x_2 2 w)))
 (= ?x6530 ?x54))))
 ))
 (let (($x5003 (forall ((n (_ BitVec 6)) )(let ((?x68 (stack_t x_0 x_1 x_2 1 n)))
 (let ((?x1998 (stack_t x_0 x_1 x_2 2 n)))
 (or (bvsle (bvadd (_ bv62 6) (sc_t 1)) n) (= ?x1998 ?x68)))))
 ))
 (let ((?x4023 (sc_t 1)))
 (let (($x5262 (= ?x4056 ?x4023)))
 (let ((?x6270 (used_gas_t x_0 x_1 x_2 2)))
 (let (($x6427 (forall ((w (_ BitVec 256)) )(let ((?x6069 (storage_t x_0 x_1 x_2 0 w)))
 (let ((?x54 (storage_t x_0 x_1 x_2 1 w)))
 (= ?x54 ?x6069))))
 ))
 (let (($x6415 (forall ((n (_ BitVec 6)) )(let ((?x63 (sc_t 0)))
 (let ((?x5266 (bvadd (_ bv63 6) ?x63)))
 (let (($x7928 (bvsle ?x5266 n)))
 (let ((?x2686 (stack_t x_0 x_1 x_2 0 n)))
 (let ((?x68 (stack_t x_0 x_1 x_2 1 n)))
 (or (= ?x68 ?x2686) $x7928)))))))
 ))
 (let (($x898 (= $x3979 (or (exc_halt_s 4) (not (bvsle (_ bv0 6) (bvadd (_ bv62 6) (sc_s 4))))))))
 (let (($x5885 (forall ((w (_ BitVec 256)) )(let ((?x564 (storage_s x_0 x_1 x_2 4 w)))
 (let ((?x5922 (storage_s x_0 x_1 x_2 5 w)))
 (= ?x5922 ?x564))))
 ))
 (let (($x5936 (forall ((n (_ BitVec 6)) )(let ((?x4936 (stack_s x_0 x_1 x_2 4 n)))
 (let ((?x503 (stack_s x_0 x_1 x_2 5 n)))
 (let ((?x4305 (sc_s 4)))
 (let ((?x8662 (bvadd (_ bv62 6) ?x4305)))
 (let (($x702 (bvsle ?x8662 n)))
 (or $x702 (= ?x503 ?x4936))))))))
 ))
 (let ((?x4305 (sc_s 4)))
 (let (($x7525 (= ?x805 ?x4305)))
 (let (($x6413 (= (used_gas_s x_0 x_1 x_2 5) (+ 3 (used_gas_s x_0 x_1 x_2 4)))))
 (let (($x6285 (= (stack_s x_0 x_1 x_2 5 (bvadd (_ bv62 6) ?x805)) (stack_s x_0 x_1 x_2 4 (bvadd (_ bv63 6) ?x4305)))))
 (let (($x5989 (= (stack_s x_0 x_1 x_2 5 (bvadd (_ bv63 6) ?x805)) (stack_s x_0 x_1 x_2 4 (bvadd (_ bv62 6) ?x4305)))))
 (let (($x64 (exc_halt_s 4)))
 (let (($x5844 (= $x64 (or (exc_halt_s 3) (not (bvsle (_ bv0 6) (bvadd (_ bv63 6) (sc_s 3))))))))
 (let (($x5189 (forall ((w (_ BitVec 256)) )(let ((?x212 (storage_s x_0 x_1 x_2 3 w)))
 (let ((?x564 (storage_s x_0 x_1 x_2 4 w)))
 (= ?x564 ?x212))))
 ))
 (let (($x5184 (forall ((n (_ BitVec 6)) )(let ((?x275 (sc_s 3)))
 (let ((?x7220 (bvadd (_ bv63 6) ?x275)))
 (let (($x6475 (bvsle ?x7220 n)))
 (let ((?x241 (stack_s x_0 x_1 x_2 3 n)))
 (let ((?x4936 (stack_s x_0 x_1 x_2 4 n)))
 (or (= ?x4936 ?x241) $x6475)))))))
 ))
 (let ((?x275 (sc_s 3)))
 (let ((?x7220 (bvadd (_ bv63 6) ?x275)))
 (let (($x5403 (= ?x4305 ?x7220)))
 (let ((?x147 (used_gas_s x_0 x_1 x_2 4)))
 (let (($x292 (exc_halt_s 3)))
 (let (($x8154 (= $x292 (or (exc_halt_s 2) (not (bvsle (_ bv0 6) (bvadd (_ bv60 6) (sc_s 2))))))))
 (let (($x675 (forall ((w (_ BitVec 256)) )(let ((?x5106 (storage_s x_0 x_1 x_2 2 w)))
 (let ((?x212 (storage_s x_0 x_1 x_2 3 w)))
 (= ?x212 ?x5106))))
 ))
 (let (($x5048 (forall ((n (_ BitVec 6)) )(let ((?x218 (sc_s 2)))
 (let ((?x7588 (bvadd (_ bv60 6) ?x218)))
 (let (($x5272 (bvsle ?x7588 n)))
 (let ((?x5093 (stack_s x_0 x_1 x_2 2 n)))
 (let ((?x241 (stack_s x_0 x_1 x_2 3 n)))
 (or (= ?x241 ?x5093) $x5272)))))))
 ))
 (let ((?x218 (sc_s 2)))
 (let (($x5222 (= ?x275 ?x218)))
 (let ((?x5084 (used_gas_s x_0 x_1 x_2 3)))
 (let (($x5070 (= (stack_s x_0 x_1 x_2 3 (bvadd (_ bv62 6) ?x275)) (stack_s x_0 x_1 x_2 2 (bvadd (_ bv62 6) ?x218)))))
 (let (($x104 (= (stack_s x_0 x_1 x_2 3 (bvadd (_ bv61 6) ?x275)) (stack_s x_0 x_1 x_2 2 (bvadd (_ bv61 6) ?x218)))))
 (let ((?x5302 (bvadd (_ bv63 6) ?x218)))
 (let ((?x5118 (stack_s x_0 x_1 x_2 2 ?x5302)))
 (let (($x5080 (= (stack_s x_0 x_1 x_2 3 ?x7220) (stack_s x_0 x_1 x_2 2 (bvadd (_ bv60 6) ?x218)))))
 (let (($x5541 (not (= ((_ extract 6 6) (bvadd (_ bv1 7) (concat (_ bv0 1) (sc_s 1)))) (_ bv0 1)))))
 (let (($x189 (exc_halt_s 1)))
 (let (($x247 (exc_halt_s 2)))
 (let (($x5670 (= $x247 (or $x189 $x5541 (not (bvsle (_ bv0 6) (bvadd (_ bv62 6) (sc_s 1))))))))
 (let (($x5108 (forall ((w (_ BitVec 256)) )(let ((?x5051 (storage_s x_0 x_1 x_2 1 w)))
 (let ((?x5106 (storage_s x_0 x_1 x_2 2 w)))
 (= ?x5106 ?x5051))))
 ))
 (let (($x5098 (forall ((n (_ BitVec 6)) )(let ((?x154 (sc_s 1)))
 (let ((?x6482 (bvadd (_ bv62 6) ?x154)))
 (let (($x5676 (bvsle ?x6482 n)))
 (let ((?x5057 (stack_s x_0 x_1 x_2 1 n)))
 (let ((?x5093 (stack_s x_0 x_1 x_2 2 n)))
 (or (= ?x5093 ?x5057) $x5676)))))))
 ))
 (let (($x7597 (= ?x218 (bvadd (_ bv1 6) (sc_s 1)))))
 (let ((?x5109 (used_gas_s x_0 x_1 x_2 2)))
 (let ((?x154 (sc_s 1)))
 (let ((?x5774 (bvadd (_ bv63 6) ?x154)))
 (let ((?x5907 (stack_s x_0 x_1 x_2 1 ?x5774)))
 (let ((?x6482 (bvadd (_ bv62 6) ?x154)))
 (let ((?x4954 (stack_s x_0 x_1 x_2 1 ?x6482)))
 (let (($x5055 (forall ((w (_ BitVec 256)) )(let ((?x6061 (storage_s x_0 x_1 x_2 0 w)))
 (let ((?x5051 (storage_s x_0 x_1 x_2 1 w)))
 (= ?x5051 ?x6061))))
 ))
 (let (($x5130 (forall ((n (_ BitVec 6)) )(let ((?x6179 (stack_s x_0 x_1 x_2 0 n)))
 (let ((?x5057 (stack_s x_0 x_1 x_2 1 n)))
 (or (bvsle (bvadd (_ bv61 6) (sc_s 0)) n) (= ?x5057 ?x6179)))))
 ))
 (let (($x3690 (= ?x154 ?x72)))
 (let (($x4833 (= (stack_s x_0 x_1 x_2 1 (bvadd (_ bv61 6) ?x154)) (stack_s x_0 x_1 x_2 0 (bvadd (_ bv63 6) ?x72)))))
 (let (($x4938 (forall ((w (_ BitVec 256)) )(let ((?x6061 (storage_s x_0 x_1 x_2 0 w)))
 (= ?x6061 (_ bv0 256))))
 ))
 (let (($x4939 (= ?x6154 0)))
 (let (($x10338 (not $x57)))
 (let (($x4787 (= (stack_s x_0 x_1 x_2 0 (_ bv2 6)) x_2)))
 (let (($x442 (= (stack_s x_0 x_1 x_2 0 (_ bv1 6)) x_1)))
 (let (($x5829 (= (stack_s x_0 x_1 x_2 0 (_ bv0 6)) x_0)))
 (let (($x96 (= ?x72 (_ bv3 6))))
 (and $x96 $x5829 $x442 $x4787 $x10338 $x4939 $x4938 (= ?x5907 (stack_s x_0 x_1 x_2 0 (bvadd (_ bv61 6) ?x72))) $x4833 (= ?x4954 (stack_s x_0 x_1 x_2 0 (bvadd (_ bv62 6) ?x72))) (= (used_gas_s x_0 x_1 x_2 1) (+ 3 ?x6154)) $x3690 $x5130 $x5055 (= $x189 (or $x57 (not (bvsle (_ bv0 6) (bvadd (_ bv61 6) ?x72))))) (= ?x5118 ?x4954) (= (stack_s x_0 x_1 x_2 2 ?x6482) ?x4954) (= (stack_s x_0 x_1 x_2 2 ?x5774) ?x5907) (= ?x5109 (+ 3 (used_gas_s x_0 x_1 x_2 1))) $x7597 $x5098 $x5108 $x5670 $x5080 (= (stack_s x_0 x_1 x_2 3 (bvadd (_ bv60 6) ?x275)) ?x5118) $x104 $x5070 (= ?x5084 (+ 3 ?x5109)) $x5222 $x5048 $x675 $x8154 (= ?x147 (+ 2 ?x5084)) $x5403 $x5184 $x5189 $x5844 $x5989 $x6285 $x6413 $x7525 $x5936 $x5885 $x898 (= (used_gas_t x_0 x_1 x_2 1) (+ 2 ?x5923)) (= ?x4023 (bvadd (_ bv63 6) ?x63)) $x6415 $x6427 (= (exc_halt_t 1) (or $x56 (not (bvsle (_ bv0 6) (bvadd (_ bv63 6) ?x63))))) (= ?x6410 (stack_t x_0 x_1 x_2 1 (bvadd (_ bv62 6) ?x4023))) (= ?x4978 (stack_t x_0 x_1 x_2 1 (bvadd (_ bv63 6) ?x4023))) (= ?x6270 (+ 3 (used_gas_t x_0 x_1 x_2 1))) $x5262 $x5003 $x4863 $x4851 (= (stack_t x_0 x_1 x_2 3 (bvadd (_ bv63 6) ?x2012)) ?x4978) (= (stack_t x_0 x_1 x_2 3 ?x5253) ?x4978) (= (stack_t x_0 x_1 x_2 3 ?x7277) ?x6410) $x5852 $x5514 $x6423 $x5663 (= $x10336 (or $x903 $x5218 $x5712)) $x73 $x5049 $x58 $x6086 $x6070 (not (and $x10507 $x2897 $x10527 $x6151)))))))))))))))))))))))))))))))))))))))))))))))))))))))))))))))))))))))))))))))))))))))))))))))
 )
(check-sat)
(get-proof)
